# 1.3.7.3_group0_PF05996_30-85~1.3.7.5_group0_PF05996_30-85.sdpA
# All alignment positions within 5\AA of a ligand/cat site passing the sdpA filter.  Column indices start with 0.
69
71
97
157
218
223
224
227
